certificates/rado_a14_c214_N38.cnf
c Rad2 upper bound instance: x1 + 14*x2 - x3 = 214, interval [1,38]
p cnf 38 204
1 11 16 0
-1 -11 -16 0
1 17 25 0
-1 -17 -25 0
2 12 16 0
-2 -12 -16 0
2 17 26 0
-2 -17 -26 0
3 13 16 0
-3 -13 -16 0
3 17 27 0
-3 -17 -27 0
4 14 16 0
-4 -14 -16 0
4 17 28 0
-4 -17 -28 0
1 5 15 0
-1 -5 -15 0
5 15 16 0
-5 -15 -16 0
5 17 29 0
-5 -17 -29 0
2 6 15 0
-2 -6 -15 0
6 16 0
-6 -16 0
6 17 30 0
-6 -17 -30 0
3 7 15 0
-3 -7 -15 0
7 16 17 0
-7 -16 -17 0
7 17 31 0
-7 -17 -31 0
4 8 15 0
-4 -8 -15 0
8 16 18 0
-8 -16 -18 0
8 17 32 0
-8 -17 -32 0
5 9 15 0
-5 -9 -15 0
9 16 19 0
-9 -16 -19 0
9 17 33 0
-9 -17 -33 0
6 10 15 0
-6 -10 -15 0
10 16 20 0
-10 -16 -20 0
10 17 34 0
-10 -17 -34 0
7 11 15 0
-7 -11 -15 0
11 16 21 0
-11 -16 -21 0
11 17 35 0
-11 -17 -35 0
8 12 15 0
-8 -12 -15 0
12 16 22 0
-12 -16 -22 0
12 17 36 0
-12 -17 -36 0
9 13 15 0
-9 -13 -15 0
13 16 23 0
-13 -16 -23 0
13 17 37 0
-13 -17 -37 0
10 14 15 0
-10 -14 -15 0
14 16 24 0
-14 -16 -24 0
14 17 38 0
-14 -17 -38 0
11 15 0
-11 -15 0
15 16 25 0
-15 -16 -25 0
12 15 16 0
-12 -15 -16 0
16 26 0
-16 -26 0
13 15 17 0
-13 -15 -17 0
16 17 27 0
-16 -17 -27 0
14 15 18 0
-14 -15 -18 0
16 18 28 0
-16 -18 -28 0
1 14 19 0
-1 -14 -19 0
15 19 0
-15 -19 0
16 19 29 0
-16 -19 -29 0
2 14 20 0
-2 -14 -20 0
15 16 20 0
-15 -16 -20 0
16 20 30 0
-16 -20 -30 0
3 14 21 0
-3 -14 -21 0
15 17 21 0
-15 -17 -21 0
16 21 31 0
-16 -21 -31 0
4 14 22 0
-4 -14 -22 0
15 18 22 0
-15 -18 -22 0
16 22 32 0
-16 -22 -32 0
5 14 23 0
-5 -14 -23 0
15 19 23 0
-15 -19 -23 0
16 23 33 0
-16 -23 -33 0
6 14 24 0
-6 -14 -24 0
15 20 24 0
-15 -20 -24 0
16 24 34 0
-16 -24 -34 0
7 14 25 0
-7 -14 -25 0
15 21 25 0
-15 -21 -25 0
16 25 35 0
-16 -25 -35 0
8 14 26 0
-8 -14 -26 0
15 22 26 0
-15 -22 -26 0
16 26 36 0
-16 -26 -36 0
9 14 27 0
-9 -14 -27 0
15 23 27 0
-15 -23 -27 0
16 27 37 0
-16 -27 -37 0
10 14 28 0
-10 -14 -28 0
15 24 28 0
-15 -24 -28 0
16 28 38 0
-16 -28 -38 0
11 14 29 0
-11 -14 -29 0
15 25 29 0
-15 -25 -29 0
12 14 30 0
-12 -14 -30 0
15 26 30 0
-15 -26 -30 0
13 14 31 0
-13 -14 -31 0
15 27 31 0
-15 -27 -31 0
14 32 0
-14 -32 0
15 28 32 0
-15 -28 -32 0
1 13 33 0
-1 -13 -33 0
14 15 33 0
-14 -15 -33 0
15 29 33 0
-15 -29 -33 0
2 13 34 0
-2 -13 -34 0
14 16 34 0
-14 -16 -34 0
15 30 34 0
-15 -30 -34 0
3 13 35 0
-3 -13 -35 0
14 17 35 0
-14 -17 -35 0
15 31 35 0
-15 -31 -35 0
4 13 36 0
-4 -13 -36 0
14 18 36 0
-14 -18 -36 0
15 32 36 0
-15 -32 -36 0
5 13 37 0
-5 -13 -37 0
14 19 37 0
-14 -19 -37 0
15 33 37 0
-15 -33 -37 0
6 13 38 0
-6 -13 -38 0
14 20 38 0
-14 -20 -38 0
15 34 38 0
-15 -34 -38 0
