certificates/rado_a14_c214_N38.drat
15 -35 -38 0
-15 -36 -38 0
-36 -37 -38 0
-17 -37 -38 0
35 17 -37 0
-37 -38 0
d -36 -37 -38 0
17 -38 0
-38 0
16 36 -17 0
-16 -17 0
-17 0
14 0
-32 0
8 0
-26 0
16 0
2 0
-6 0
-34 0
-4 0
-24 0
-18 0
-20 0
-12 0
30 0
13 0
15 0
10 0
28 0
36 0
-3 0
-23 0
-31 0
-11 0
-19 0
-9 0
-25 0
-5 0
0
